Solver command line: ['C:\\Users\\marcf\\Desktop\\playground\\W-ETH-Opensource_Optimization_Workshop\\_Solvers\\Ipopt-3.11.1-win64-intel13.1\\bin\\ipopt.exe', 'C:\\Users\\marcf\\AppData\\Local\\Temp\\tmp96gx57pu.pyomo.nl', '-AMPL']

Ipopt 3.11.1: 



******************************************************************************

This program contains Ipopt, a library for large-scale nonlinear optimization.

 Ipopt is released as open source code under the Eclipse Public License (EPL).

         For more information visit http://projects.coin-or.org/Ipopt

******************************************************************************



NOTE: You are using Ipopt by default with the MUMPS linear solver.

      Other linear solvers might be more efficient (see Ipopt documentation).





This is Ipopt version 3.11.1, running with linear solver mumps.



Number of nonzeros in equality constraint Jacobian...:     5592

Number of nonzeros in inequality constraint Jacobian.:        0

Number of nonzeros in Lagrangian Hessian.............:  1102500



Total number of variables............................:    10000

                     variables with only lower bounds:    10000

                variables with lower and upper bounds:        0

                     variables with only upper bounds:        0

Total number of equality constraints.................:     5592

Total number of inequality constraints...............:        0

        inequality constraints with only lower bounds:        0

   inequality constraints with lower and upper bounds:        0

        inequality constraints with only upper bounds:        0



iter    objective    inf_pr   inf_du lg(mu)  ||d||  lg(rg) alpha_du alpha_pr  ls

   0 1.0544774e+007 1.00e-002 1.17e+001  -1.0 0.00e+000    -  0.00e+000 0.00e+000   0

   1 1.7318440e+007 1.00e-004 2.18e+000  -1.0 7.46e-001    -  7.72e-001 9.90e-001h  1

   2 2.6154936e+007 1.28e-006 2.03e+002  -1.0 4.81e+000    -  7.84e-001 9.87e-001h  1

   3 4.6300405e+007 1.28e-007 1.58e+004  -1.0 2.55e+001    -  6.96e-001 9.00e-001f  1

   4 5.8188512e+007 6.42e-008 1.59e+004  -1.0 9.23e+001    -  4.89e-001 5.00e-001f  2

   5 7.1823039e+007 3.21e-008 5.51e+005  -1.0 7.11e+001    -  9.32e-001 5.00e-001f  2

   6 1.3012071e+008 3.85e-009 2.87e+005  -1.0 1.91e+002    -  9.91e-001 8.80e-001f  1

   7 1.7858112e+008 6.78e-010 1.54e+006  -1.0 1.68e+004    -  4.81e-001 8.24e-001f  1

   8 1.7916585e+008 5.93e-010 2.09e+006  -1.0 2.38e+004    -  1.00e+000 1.25e-001f  4

   9 1.8046569e+008 4.45e-010 1.75e+006  -1.0 7.82e+004    -  1.00e+000 2.50e-001f  3

iter    objective    inf_pr   inf_du lg(mu)  ||d||  lg(rg) alpha_du alpha_pr  ls

  10 1.8446639e+008 0.00e+000 1.00e-006  -1.0 5.84e+004    -  1.00e+000 1.00e+000h  1

  11 5.5660104e+007 1.89e-036 3.15e+006  -8.6 1.60e+004    -  6.85e-001 1.00e+000f  1

  12 2.5672650e+007 6.66e-045 1.75e+006  -8.6 1.77e+004    -  4.44e-001 1.00e+000f  1

  13 1.6672643e+007 1.50e-043 1.12e+006  -8.6 1.54e+004    -  3.58e-001 1.00e+000f  1

  14 1.3068012e+007 1.17e-038 4.84e+005  -8.6 1.27e+004    -  5.69e-001 1.00e+000f  1

  15 1.1143926e+007 1.48e-043 4.11e+005  -8.6 1.58e+004    -  1.53e-001 1.00e+000f  1

  16 1.0373082e+007 2.30e-043 2.50e+005  -8.6 1.31e+004    -  3.91e-001 1.00e+000f  1

  17 9.9618148e+006 2.29e-042 1.52e+005  -8.6 1.33e+004    -  3.92e-001 8.94e-001f  1

  18 9.6885186e+006 3.03e-042 1.07e+005  -8.6 1.20e+004    -  2.99e-001 8.88e-001f  1

  19 9.5589216e+006 6.39e-043 6.75e+004  -8.6 8.27e+003    -  3.67e-001 7.73e-001f  1

iter    objective    inf_pr   inf_du lg(mu)  ||d||  lg(rg) alpha_du alpha_pr  ls

  20 9.4714983e+006 1.24e-041 4.27e+004  -8.6 5.64e+003    -  3.68e-001 8.18e-001f  1

  21 9.4227832e+006 8.72e-039 2.72e+004  -8.6 3.58e+003    -  3.64e-001 8.61e-001f  1

  22 9.4024238e+006 9.33e-040 1.31e+004  -8.6 1.94e+003    -  5.18e-001 8.93e-001f  1

  23 9.3947174e+006 4.49e-041 2.96e+003  -8.6 8.45e+002    -  7.74e-001 9.53e-001f  1

  24 9.3927615e+006 5.75e-039 6.88e+002  -8.6 2.07e+002    -  7.68e-001 9.68e-001f  1

  25 9.3925587e+006 1.85e-038 1.42e+001  -8.6 3.25e+001    -  9.79e-001 1.00e+000f  1

  26 9.3925523e+006 1.95e-033 2.74e-002  -8.6 2.76e+001    -  9.98e-001 1.00e+000f  1

  27 9.3925519e+006 3.68e-032 9.04e-006  -8.6 1.35e+003    -  1.00e+000 7.49e-001f  1

  28 9.3925516e+006 4.27e-033 4.87e-014  -8.6 4.78e+002    -  1.00e+000 1.00e+000f  1

  29 9.3925435e+006 8.67e-036 1.28e-013 -11.0 1.70e-001    -  1.00e+000 1.00e+000f  1

iter    objective    inf_pr   inf_du lg(mu)  ||d||  lg(rg) alpha_du alpha_pr  ls

  30 9.3925435e+006 2.51e-030 7.95e-014 -11.0 6.77e-001    -  1.00e+000 1.00e+000f  1



Number of Iterations....: 30



                                   (scaled)                 (unscaled)

Objective...............:  1.1149511573276104e+001   9.3925434644117150e+006

Dual infeasibility......:  7.9521002164424116e-014   6.6989882404639327e-008

Constraint violation....:  2.5140791629681539e-030   2.5140791629681539e-030

Complementarity.........:  1.2620320225524459e-011   1.0631578385653227e-005

Overall NLP error.......:  1.2620320225524459e-011   1.0631578385653227e-005





Number of objective function evaluations             = 38

Number of objective gradient evaluations             = 31

Number of equality constraint evaluations            = 38

Number of inequality constraint evaluations          = 0

Number of equality constraint Jacobian evaluations   = 31

Number of inequality constraint Jacobian evaluations = 0

Number of Lagrangian Hessian evaluations             = 30

Total CPU secs in IPOPT (w/o function evaluations)   =    289.922

Total CPU secs in NLP function evaluations           =      0.217



EXIT: Optimal Solution Found.


